Route #1: 51 3 44 32
Route #2: 12 40 17
Route #3: 54 13 27 45
Route #4: 34 52 46
Route #5: 8 35 7 26
Route #6: 19 14 53
Route #7: 11 38
Route #8: 10 31 39
Route #9: 9 25 50
Route #10: 18 24 49 23 16
Route #11: 33 43 1
Route #12: 41 42 22 28
Route #13: 21 36 47
Route #14: 15 20 37 5
Route #15: 29 48 30
Route #16: 2 6
Route #17: 4
Cost 976